N = 13;
H = 6;
T = 2;

avail = array3d(1..N, 1..H, 1..T, [8, 2, 1, 7, 8, 4, 3, 9, 7, 3, 5, 0, 10, 0, 9, 10, 8, 3, 10, 0, 2, 10, 4, 4, 10, 6, 4, 2, 0, 1, 3, 9, 3, 9, 5, 1, 1, 8, 8, 8, 4, 8, 10, 6, 1, 8, 4, 5, 5, 9, 5, 2, 2, 2, 8, 2, 3, 7, 8, 7, 5, 6, 5, 9, 3, 2, 3, 3, 6, 10, 6, 5, 5, 5, 4, 6, 1, 8, 9, 8, 3, 4, 2, 8, 4, 10, 4, 7, 3, 5, 7, 2, 8, 1, 10, 10, 3, 3, 9, 8, 2, 1, 9, 8, 10, 8, 4, 9, 0, 2, 3, 0, 5, 4, 0, 2, 6, 10, 10, 0, 1, 7, 7, 5, 1, 9, 9, 0, 8, 5, 1, 7, 3, 4, 7, 7, 7, 2, 4, 6, 3, 3, 4, 8, 0, 6, 4, 1, 0, 0, 0, 7, 9, 8, 1, 1]);

r = array2d(1..H, 1..T, [4, 1, 0, 6, 2, 3, 3, 6, 5, 4, 3, 3]);
